p edge 2820 2765
e 1 2
e 1 3
e 1 4
e 1 5
e 1 6
e 1 7
e 1 8
e 1 9
e 1 10
e 1 11
e 1 12
e 1 13
e 1 14
e 1 15
e 1 16
e 1 17
e 1 18
e 1 19
e 1 20
e 1 21
e 1 22
e 1 23
e 1 24
e 1 25
e 1 26
e 1 27
e 1 28
e 1 29
e 1 30
e 1 31
e 1 32
e 1 33
e 1 34
e 1 35
e 1 36
e 1 37
e 1 38
e 1 39
e 1 40
e 1 41
e 1 42
e 1 43
e 1 44
e 1 45
e 1 46
e 1 47
e 1 48
e 1 49
e 1 50
e 1 51
e 1 52
e 1 53
e 1 54
e 1 55
e 1 56
e 1 57
e 1 58
e 1 59
e 1 60
e 1 61
e 1 62
e 1 63
e 1 64
e 1 65
e 66 67
e 66 68
e 66 69
e 66 70
e 66 71
e 66 72
e 66 73
e 66 74
e 66 75
e 66 76
e 66 77
e 66 78
e 66 79
e 80 81
e 80 82
e 80 83
e 80 84
e 80 85
e 80 86
e 80 87
e 80 88
e 80 89
e 80 90
e 80 91
e 80 92
e 80 93
e 80 94
e 80 95
e 80 96
e 80 97
e 80 98
e 80 99
e 80 100
e 80 101
e 80 102
e 80 103
e 80 104
e 80 105
e 80 106
e 80 107
e 80 108
e 80 109
e 80 110
e 80 111
e 112 113
e 112 114
e 112 115
e 112 116
e 112 117
e 112 118
e 112 119
e 112 120
e 112 121
e 112 122
e 112 123
e 112 124
e 112 125
e 112 126
e 112 127
e 112 128
e 112 129
e 112 130
e 112 131
e 112 132
e 112 133
e 112 134
e 112 135
e 112 136
e 112 137
e 112 138
e 112 139
e 112 140
e 112 141
e 112 142
e 112 143
e 112 144
e 112 145
e 112 146
e 112 147
e 112 148
e 112 149
e 112 150
e 112 151
e 112 152
e 112 153
e 112 154
e 112 155
e 112 156
e 112 157
e 112 158
e 112 159
e 112 160
e 112 161
e 112 162
e 112 163
e 112 164
e 112 165
e 112 166
e 112 167
e 112 168
e 112 169
e 112 170
e 112 171
e 112 172
e 112 173
e 112 174
e 112 175
e 112 176
e 112 177
e 112 178
e 112 179
e 112 180
e 112 181
e 112 182
e 183 184
e 183 185
e 183 186
e 183 187
e 183 188
e 183 189
e 183 190
e 183 191
e 183 192
e 183 193
e 183 194
e 183 195
e 183 196
e 183 197
e 183 198
e 183 199
e 183 200
e 183 201
e 183 202
e 183 203
e 183 204
e 183 205
e 183 206
e 183 207
e 183 208
e 183 209
e 183 210
e 183 211
e 183 212
e 183 213
e 183 214
e 183 215
e 183 216
e 183 217
e 183 218
e 183 219
e 183 220
e 183 221
e 183 222
e 183 223
e 183 224
e 183 225
e 183 226
e 183 227
e 183 228
e 183 229
e 183 230
e 183 231
e 183 232
e 183 233
e 183 234
e 235 236
e 235 237
e 235 238
e 235 239
e 235 240
e 235 241
e 235 242
e 235 243
e 235 244
e 235 245
e 235 246
e 235 247
e 235 248
e 235 249
e 235 250
e 235 251
e 235 252
e 235 253
e 235 254
e 235 255
e 235 256
e 235 257
e 235 258
e 235 259
e 235 260
e 235 261
e 235 262
e 235 263
e 235 264
e 235 265
e 235 266
e 235 267
e 235 268
e 235 269
e 235 270
e 235 271
e 235 272
e 235 273
e 235 274
e 235 275
e 235 276
e 235 277
e 235 278
e 235 279
e 235 280
e 235 281
e 235 282
e 235 283
e 235 284
e 235 285
e 235 286
e 235 287
e 288 289
e 288 290
e 288 291
e 288 292
e 288 293
e 288 294
e 288 295
e 288 296
e 288 297
e 288 298
e 288 299
e 288 300
e 288 301
e 288 302
e 288 303
e 288 304
e 288 305
e 288 306
e 288 307
e 288 308
e 288 309
e 288 310
e 288 311
e 288 312
e 288 313
e 288 314
e 288 315
e 288 316
e 288 317
e 288 318
e 288 319
e 288 320
e 288 321
e 288 322
e 288 323
e 288 324
e 288 325
e 288 326
e 288 327
e 288 328
e 288 329
e 288 330
e 288 331
e 288 332
e 288 333
e 288 334
e 288 335
e 288 336
e 288 337
e 288 338
e 288 339
e 288 340
e 288 341
e 288 342
e 288 343
e 288 344
e 288 345
e 288 346
e 288 347
e 288 348
e 349 350
e 349 351
e 349 352
e 349 353
e 349 354
e 349 355
e 349 356
e 349 357
e 349 358
e 349 359
e 349 360
e 349 361
e 349 362
e 349 363
e 349 364
e 349 365
e 349 366
e 349 367
e 349 368
e 349 369
e 349 370
e 349 371
e 349 372
e 349 373
e 349 374
e 349 375
e 349 376
e 349 377
e 349 378
e 349 379
e 349 380
e 349 381
e 349 382
e 349 383
e 349 384
e 349 385
e 349 386
e 387 388
e 387 389
e 387 390
e 387 391
e 387 392
e 387 393
e 387 394
e 387 395
e 387 396
e 387 397
e 387 398
e 387 399
e 387 400
e 387 401
e 387 402
e 387 403
e 387 404
e 387 405
e 387 406
e 407 408
e 407 409
e 407 410
e 407 411
e 407 412
e 407 413
e 407 414
e 407 415
e 407 416
e 407 417
e 407 418
e 407 419
e 407 420
e 407 421
e 407 422
e 407 423
e 407 424
e 407 425
e 407 426
e 407 427
e 407 428
e 407 429
e 407 430
e 407 431
e 407 432
e 407 433
e 407 434
e 407 435
e 407 436
e 407 437
e 407 438
e 407 439
e 407 440
e 407 441
e 407 442
e 407 443
e 407 444
e 445 446
e 445 447
e 445 448
e 445 449
e 445 450
e 445 451
e 445 452
e 445 453
e 445 454
e 445 455
e 445 456
e 445 457
e 445 458
e 445 459
e 445 460
e 445 461
e 445 462
e 445 463
e 445 464
e 445 465
e 445 466
e 445 467
e 445 468
e 445 469
e 445 470
e 445 471
e 445 472
e 445 473
e 445 474
e 445 475
e 445 476
e 445 477
e 445 478
e 445 479
e 445 480
e 445 481
e 445 482
e 445 483
e 445 484
e 445 485
e 445 486
e 445 487
e 445 488
e 445 489
e 445 490
e 445 491
e 445 492
e 445 493
e 445 494
e 445 495
e 445 496
e 445 497
e 445 498
e 445 499
e 445 500
e 445 501
e 445 502
e 445 503
e 445 504
e 445 505
e 445 506
e 445 507
e 445 508
e 445 509
e 445 510
e 445 511
e 445 512
e 445 513
e 514 515
e 514 516
e 514 517
e 514 518
e 514 519
e 514 520
e 514 521
e 514 522
e 514 523
e 514 524
e 514 525
e 514 526
e 514 527
e 514 528
e 514 529
e 514 530
e 514 531
e 514 532
e 514 533
e 514 534
e 514 535
e 514 536
e 514 537
e 514 538
e 514 539
e 514 540
e 514 541
e 514 542
e 514 543
e 514 544
e 514 545
e 514 546
e 514 547
e 514 548
e 514 549
e 514 550
e 514 551
e 514 552
e 514 553
e 514 554
e 514 555
e 514 556
e 514 557
e 514 558
e 514 559
e 514 560
e 514 561
e 514 562
e 514 563
e 514 564
e 514 565
e 514 566
e 514 567
e 514 568
e 514 569
e 514 570
e 514 571
e 514 572
e 514 573
e 514 574
e 514 575
e 514 576
e 514 577
e 514 578
e 514 579
e 514 580
e 514 581
e 514 582
e 514 583
e 514 584
e 514 585
e 514 586
e 514 587
e 514 588
e 514 589
e 514 590
e 514 591
e 514 592
e 593 594
e 593 595
e 593 596
e 593 597
e 593 598
e 593 599
e 593 600
e 593 601
e 593 602
e 593 603
e 593 604
e 593 605
e 593 606
e 593 607
e 593 608
e 593 609
e 593 610
e 593 611
e 593 612
e 593 613
e 593 614
e 593 615
e 593 616
e 593 617
e 593 618
e 593 619
e 593 620
e 593 621
e 593 622
e 593 623
e 593 624
e 593 625
e 593 626
e 593 627
e 593 628
e 593 629
e 593 630
e 593 631
e 593 632
e 593 633
e 593 634
e 593 635
e 593 636
e 593 637
e 593 638
e 593 639
e 593 640
e 593 641
e 593 642
e 593 643
e 593 644
e 593 645
e 646 647
e 646 648
e 646 649
e 646 650
e 646 651
e 646 652
e 646 653
e 646 654
e 646 655
e 646 656
e 646 657
e 646 658
e 646 659
e 646 660
e 646 661
e 646 662
e 646 663
e 646 664
e 646 665
e 646 666
e 646 667
e 646 668
e 646 669
e 646 670
e 646 671
e 646 672
e 646 673
e 646 674
e 646 675
e 646 676
e 646 677
e 646 678
e 646 679
e 646 680
e 646 681
e 646 682
e 646 683
e 646 684
e 646 685
e 646 686
e 646 687
e 646 688
e 646 689
e 646 690
e 646 691
e 646 692
e 646 693
e 646 694
e 646 695
e 646 696
e 646 697
e 698 699
e 698 700
e 698 701
e 698 702
e 698 703
e 698 704
e 698 705
e 698 706
e 698 707
e 698 708
e 698 709
e 698 710
e 698 711
e 698 712
e 698 713
e 698 714
e 698 715
e 698 716
e 698 717
e 698 718
e 698 719
e 698 720
e 698 721
e 698 722
e 698 723
e 698 724
e 698 725
e 698 726
e 698 727
e 698 728
e 698 729
e 698 730
e 698 731
e 698 732
e 698 733
e 698 734
e 698 735
e 698 736
e 698 737
e 698 738
e 698 739
e 698 740
e 698 741
e 698 742
e 698 743
e 698 744
e 698 745
e 698 746
e 698 747
e 698 748
e 698 749
e 698 750
e 698 751
e 698 752
e 698 753
e 698 754
e 698 755
e 698 756
e 698 757
e 698 758
e 698 759
e 698 760
e 698 761
e 698 762
e 698 763
e 698 764
e 698 765
e 698 766
e 698 767
e 698 768
e 698 769
e 698 770
e 771 772
e 771 773
e 771 774
e 771 775
e 771 776
e 771 777
e 771 778
e 771 779
e 771 780
e 771 781
e 771 782
e 771 783
e 771 784
e 771 785
e 771 786
e 771 787
e 771 788
e 771 789
e 771 790
e 771 791
e 771 792
e 771 793
e 771 794
e 771 795
e 771 796
e 771 797
e 771 798
e 771 799
e 771 800
e 771 801
e 771 802
e 771 803
e 771 804
e 771 805
e 771 806
e 771 807
e 771 808
e 771 809
e 771 810
e 771 811
e 771 812
e 771 813
e 771 814
e 771 815
e 771 816
e 771 817
e 771 818
e 771 819
e 771 820
e 771 821
e 771 822
e 771 823
e 771 824
e 771 825
e 771 826
e 771 827
e 771 828
e 771 829
e 771 830
e 771 831
e 771 832
e 771 833
e 771 834
e 771 835
e 771 836
e 771 837
e 771 838
e 771 839
e 771 840
e 771 841
e 842 843
e 842 844
e 842 845
e 842 846
e 842 847
e 842 848
e 842 849
e 842 850
e 842 851
e 842 852
e 842 853
e 842 854
e 842 855
e 842 856
e 842 857
e 842 858
e 842 859
e 860 861
e 860 862
e 860 863
e 860 864
e 860 865
e 860 866
e 860 867
e 860 868
e 860 869
e 860 870
e 860 871
e 860 872
e 860 873
e 860 874
e 860 875
e 860 876
e 860 877
e 860 878
e 860 879
e 860 880
e 881 882
e 881 883
e 881 884
e 881 885
e 881 886
e 881 887
e 881 888
e 881 889
e 881 890
e 881 891
e 881 892
e 881 893
e 881 894
e 881 895
e 881 896
e 881 897
e 881 898
e 881 899
e 881 900
e 881 901
e 881 902
e 881 903
e 881 904
e 881 905
e 881 906
e 881 907
e 881 908
e 881 909
e 881 910
e 881 911
e 881 912
e 881 913
e 881 914
e 881 915
e 881 916
e 881 917
e 881 918
e 881 919
e 881 920
e 881 921
e 881 922
e 881 923
e 881 924
e 881 925
e 881 926
e 881 927
e 881 928
e 881 929
e 881 930
e 881 931
e 881 932
e 881 933
e 881 934
e 881 935
e 881 936
e 881 937
e 881 938
e 881 939
e 881 940
e 881 941
e 881 942
e 881 943
e 881 944
e 881 945
e 881 946
e 881 947
e 881 948
e 881 949
e 881 950
e 881 951
e 881 952
e 953 954
e 953 955
e 953 956
e 953 957
e 953 958
e 953 959
e 953 960
e 953 961
e 953 962
e 953 963
e 953 964
e 953 965
e 953 966
e 953 967
e 953 968
e 953 969
e 953 970
e 953 971
e 953 972
e 953 973
e 974 975
e 974 976
e 974 977
e 974 978
e 974 979
e 974 980
e 974 981
e 974 982
e 974 983
e 974 984
e 974 985
e 974 986
e 974 987
e 974 988
e 974 989
e 974 990
e 974 991
e 974 992
e 974 993
e 974 994
e 974 995
e 974 996
e 974 997
e 974 998
e 974 999
e 974 1000
e 974 1001
e 974 1002
e 974 1003
e 1004 1005
e 1004 1006
e 1004 1007
e 1004 1008
e 1004 1009
e 1004 1010
e 1004 1011
e 1004 1012
e 1004 1013
e 1004 1014
e 1004 1015
e 1004 1016
e 1004 1017
e 1004 1018
e 1004 1019
e 1004 1020
e 1004 1021
e 1004 1022
e 1004 1023
e 1004 1024
e 1004 1025
e 1004 1026
e 1004 1027
e 1004 1028
e 1004 1029
e 1004 1030
e 1004 1031
e 1004 1032
e 1004 1033
e 1004 1034
e 1004 1035
e 1004 1036
e 1004 1037
e 1004 1038
e 1004 1039
e 1004 1040
e 1004 1041
e 1004 1042
e 1004 1043
e 1004 1044
e 1004 1045
e 1004 1046
e 1004 1047
e 1004 1048
e 1004 1049
e 1004 1050
e 1004 1051
e 1004 1052
e 1004 1053
e 1004 1054
e 1004 1055
e 1004 1056
e 1004 1057
e 1004 1058
e 1004 1059
e 1004 1060
e 1004 1061
e 1004 1062
e 1004 1063
e 1004 1064
e 1004 1065
e 1004 1066
e 1004 1067
e 1004 1068
e 1004 1069
e 1004 1070
e 1004 1071
e 1004 1072
e 1004 1073
e 1004 1074
e 1004 1075
e 1004 1076
e 1004 1077
e 1004 1078
e 1004 1079
e 1004 1080
e 1004 1081
e 1004 1082
e 1004 1083
e 1084 1085
e 1084 1086
e 1084 1087
e 1084 1088
e 1084 1089
e 1084 1090
e 1084 1091
e 1084 1092
e 1084 1093
e 1084 1094
e 1084 1095
e 1096 1097
e 1096 1098
e 1096 1099
e 1096 1100
e 1096 1101
e 1096 1102
e 1096 1103
e 1096 1104
e 1096 1105
e 1096 1106
e 1096 1107
e 1096 1108
e 1096 1109
e 1096 1110
e 1096 1111
e 1096 1112
e 1096 1113
e 1096 1114
e 1096 1115
e 1096 1116
e 1096 1117
e 1096 1118
e 1096 1119
e 1096 1120
e 1096 1121
e 1096 1122
e 1096 1123
e 1096 1124
e 1125 1126
e 1125 1127
e 1125 1128
e 1125 1129
e 1125 1130
e 1125 1131
e 1125 1132
e 1125 1133
e 1125 1134
e 1125 1135
e 1125 1136
e 1125 1137
e 1125 1138
e 1125 1139
e 1125 1140
e 1125 1141
e 1125 1142
e 1125 1143
e 1125 1144
e 1125 1145
e 1125 1146
e 1125 1147
e 1125 1148
e 1125 1149
e 1125 1150
e 1125 1151
e 1125 1152
e 1125 1153
e 1125 1154
e 1125 1155
e 1125 1156
e 1125 1157
e 1125 1158
e 1125 1159
e 1125 1160
e 1125 1161
e 1125 1162
e 1125 1163
e 1125 1164
e 1125 1165
e 1125 1166
e 1125 1167
e 1125 1168
e 1125 1169
e 1170 1171
e 1170 1172
e 1170 1173
e 1170 1174
e 1170 1175
e 1170 1176
e 1170 1177
e 1170 1178
e 1170 1179
e 1170 1180
e 1170 1181
e 1170 1182
e 1170 1183
e 1170 1184
e 1170 1185
e 1170 1186
e 1170 1187
e 1170 1188
e 1170 1189
e 1170 1190
e 1170 1191
e 1170 1192
e 1170 1193
e 1170 1194
e 1170 1195
e 1170 1196
e 1170 1197
e 1170 1198
e 1170 1199
e 1170 1200
e 1170 1201
e 1170 1202
e 1170 1203
e 1170 1204
e 1170 1205
e 1170 1206
e 1170 1207
e 1170 1208
e 1170 1209
e 1170 1210
e 1170 1211
e 1170 1212
e 1170 1213
e 1170 1214
e 1170 1215
e 1170 1216
e 1170 1217
e 1170 1218
e 1170 1219
e 1170 1220
e 1170 1221
e 1222 1223
e 1222 1224
e 1222 1225
e 1222 1226
e 1222 1227
e 1222 1228
e 1222 1229
e 1222 1230
e 1222 1231
e 1222 1232
e 1222 1233
e 1222 1234
e 1222 1235
e 1222 1236
e 1222 1237
e 1222 1238
e 1222 1239
e 1222 1240
e 1222 1241
e 1222 1242
e 1222 1243
e 1222 1244
e 1222 1245
e 1222 1246
e 1222 1247
e 1222 1248
e 1222 1249
e 1222 1250
e 1222 1251
e 1222 1252
e 1222 1253
e 1222 1254
e 1222 1255
e 1222 1256
e 1222 1257
e 1222 1258
e 1222 1259
e 1222 1260
e 1222 1261
e 1222 1262
e 1222 1263
e 1222 1264
e 1222 1265
e 1222 1266
e 1222 1267
e 1222 1268
e 1222 1269
e 1222 1270
e 1222 1271
e 1222 1272
e 1222 1273
e 1222 1274
e 1222 1275
e 1222 1276
e 1222 1277
e 1222 1278
e 1222 1279
e 1222 1280
e 1222 1281
e 1222 1282
e 1222 1283
e 1222 1284
e 1222 1285
e 1222 1286
e 1222 1287
e 1222 1288
e 1222 1289
e 1222 1290
e 1222 1291
e 1222 1292
e 1293 1294
e 1293 1295
e 1293 1296
e 1293 1297
e 1293 1298
e 1293 1299
e 1293 1300
e 1293 1301
e 1293 1302
e 1293 1303
e 1293 1304
e 1293 1305
e 1293 1306
e 1293 1307
e 1293 1308
e 1293 1309
e 1293 1310
e 1293 1311
e 1293 1312
e 1293 1313
e 1293 1314
e 1293 1315
e 1293 1316
e 1293 1317
e 1293 1318
e 1293 1319
e 1293 1320
e 1293 1321
e 1293 1322
e 1293 1323
e 1293 1324
e 1293 1325
e 1293 1326
e 1293 1327
e 1293 1328
e 1293 1329
e 1293 1330
e 1293 1331
e 1293 1332
e 1293 1333
e 1334 1335
e 1334 1336
e 1334 1337
e 1334 1338
e 1334 1339
e 1334 1340
e 1334 1341
e 1334 1342
e 1334 1343
e 1334 1344
e 1334 1345
e 1334 1346
e 1334 1347
e 1334 1348
e 1334 1349
e 1334 1350
e 1334 1351
e 1334 1352
e 1334 1353
e 1334 1354
e 1334 1355
e 1334 1356
e 1334 1357
e 1334 1358
e 1334 1359
e 1334 1360
e 1334 1361
e 1334 1362
e 1334 1363
e 1334 1364
e 1334 1365
e 1334 1366
e 1334 1367
e 1334 1368
e 1334 1369
e 1334 1370
e 1334 1371
e 1334 1372
e 1334 1373
e 1334 1374
e 1334 1375
e 1334 1376
e 1377 1378
e 1377 1379
e 1377 1380
e 1377 1381
e 1377 1382
e 1377 1383
e 1377 1384
e 1377 1385
e 1377 1386
e 1377 1387
e 1377 1388
e 1377 1389
e 1377 1390
e 1377 1391
e 1377 1392
e 1377 1393
e 1377 1394
e 1377 1395
e 1377 1396
e 1377 1397
e 1377 1398
e 1377 1399
e 1377 1400
e 1377 1401
e 1377 1402
e 1377 1403
e 1377 1404
e 1377 1405
e 1377 1406
e 1377 1407
e 1377 1408
e 1377 1409
e 1377 1410
e 1377 1411
e 1377 1412
e 1377 1413
e 1377 1414
e 1377 1415
e 1377 1416
e 1377 1417
e 1377 1418
e 1377 1419
e 1377 1420
e 1377 1421
e 1377 1422
e 1377 1423
e 1377 1424
e 1377 1425
e 1377 1426
e 1377 1427
e 1377 1428
e 1377 1429
e 1377 1430
e 1377 1431
e 1377 1432
e 1377 1433
e 1377 1434
e 1377 1435
e 1377 1436
e 1377 1437
e 1377 1438
e 1377 1439
e 1377 1440
e 1377 1441
e 1377 1442
e 1377 1443
e 1377 1444
e 1377 1445
e 1377 1446
e 1377 1447
e 1377 1448
e 1377 1449
e 1377 1450
e 1377 1451
e 1377 1452
e 1453 1454
e 1453 1455
e 1453 1456
e 1453 1457
e 1453 1458
e 1453 1459
e 1453 1460
e 1453 1461
e 1453 1462
e 1453 1463
e 1453 1464
e 1453 1465
e 1453 1466
e 1453 1467
e 1453 1468
e 1453 1469
e 1453 1470
e 1453 1471
e 1453 1472
e 1453 1473
e 1453 1474
e 1453 1475
e 1453 1476
e 1453 1477
e 1453 1478
e 1453 1479
e 1453 1480
e 1453 1481
e 1453 1482
e 1453 1483
e 1453 1484
e 1453 1485
e 1453 1486
e 1453 1487
e 1453 1488
e 1453 1489
e 1453 1490
e 1453 1491
e 1453 1492
e 1453 1493
e 1453 1494
e 1453 1495
e 1453 1496
e 1453 1497
e 1453 1498
e 1453 1499
e 1453 1500
e 1453 1501
e 1453 1502
e 1453 1503
e 1453 1504
e 1453 1505
e 1453 1506
e 1453 1507
e 1453 1508
e 1453 1509
e 1453 1510
e 1453 1511
e 1453 1512
e 1453 1513
e 1453 1514
e 1453 1515
e 1453 1516
e 1453 1517
e 1453 1518
e 1453 1519
e 1453 1520
e 1453 1521
e 1453 1522
e 1453 1523
e 1453 1524
e 1453 1525
e 1453 1526
e 1453 1527
e 1453 1528
e 1529 1530
e 1529 1531
e 1529 1532
e 1529 1533
e 1529 1534
e 1529 1535
e 1529 1536
e 1529 1537
e 1529 1538
e 1529 1539
e 1529 1540
e 1529 1541
e 1529 1542
e 1529 1543
e 1529 1544
e 1529 1545
e 1529 1546
e 1529 1547
e 1529 1548
e 1529 1549
e 1529 1550
e 1529 1551
e 1529 1552
e 1529 1553
e 1529 1554
e 1529 1555
e 1529 1556
e 1529 1557
e 1529 1558
e 1529 1559
e 1529 1560
e 1529 1561
e 1529 1562
e 1529 1563
e 1529 1564
e 1529 1565
e 1529 1566
e 1529 1567
e 1529 1568
e 1529 1569
e 1529 1570
e 1529 1571
e 1529 1572
e 1529 1573
e 1529 1574
e 1529 1575
e 1529 1576
e 1529 1577
e 1529 1578
e 1529 1579
e 1529 1580
e 1529 1581
e 1529 1582
e 1529 1583
e 1529 1584
e 1529 1585
e 1529 1586
e 1529 1587
e 1529 1588
e 1529 1589
e 1529 1590
e 1529 1591
e 1529 1592
e 1529 1593
e 1529 1594
e 1529 1595
e 1529 1596
e 1529 1597
e 1529 1598
e 1529 1599
e 1529 1600
e 1529 1601
e 1529 1602
e 1529 1603
e 1529 1604
e 1529 1605
e 1529 1606
e 1529 1607
e 1529 1608
e 1529 1609
e 1610 1611
e 1610 1612
e 1610 1613
e 1610 1614
e 1610 1615
e 1610 1616
e 1610 1617
e 1610 1618
e 1610 1619
e 1610 1620
e 1610 1621
e 1610 1622
e 1610 1623
e 1610 1624
e 1610 1625
e 1610 1626
e 1610 1627
e 1610 1628
e 1610 1629
e 1610 1630
e 1610 1631
e 1610 1632
e 1610 1633
e 1610 1634
e 1610 1635
e 1610 1636
e 1610 1637
e 1610 1638
e 1610 1639
e 1610 1640
e 1610 1641
e 1610 1642
e 1610 1643
e 1610 1644
e 1610 1645
e 1610 1646
e 1610 1647
e 1610 1648
e 1610 1649
e 1610 1650
e 1610 1651
e 1610 1652
e 1610 1653
e 1610 1654
e 1610 1655
e 1610 1656
e 1610 1657
e 1610 1658
e 1610 1659
e 1610 1660
e 1610 1661
e 1662 1663
e 1662 1664
e 1662 1665
e 1662 1666
e 1662 1667
e 1662 1668
e 1662 1669
e 1662 1670
e 1662 1671
e 1662 1672
e 1662 1673
e 1662 1674
e 1662 1675
e 1662 1676
e 1662 1677
e 1662 1678
e 1662 1679
e 1662 1680
e 1662 1681
e 1662 1682
e 1662 1683
e 1662 1684
e 1662 1685
e 1662 1686
e 1662 1687
e 1688 1689
e 1688 1690
e 1688 1691
e 1688 1692
e 1688 1693
e 1688 1694
e 1688 1695
e 1688 1696
e 1688 1697
e 1688 1698
e 1688 1699
e 1688 1700
e 1688 1701
e 1688 1702
e 1688 1703
e 1688 1704
e 1688 1705
e 1688 1706
e 1688 1707
e 1688 1708
e 1688 1709
e 1688 1710
e 1688 1711
e 1688 1712
e 1688 1713
e 1688 1714
e 1688 1715
e 1688 1716
e 1688 1717
e 1688 1718
e 1688 1719
e 1688 1720
e 1688 1721
e 1688 1722
e 1688 1723
e 1688 1724
e 1688 1725
e 1688 1726
e 1688 1727
e 1688 1728
e 1688 1729
e 1688 1730
e 1688 1731
e 1688 1732
e 1688 1733
e 1688 1734
e 1688 1735
e 1688 1736
e 1688 1737
e 1688 1738
e 1739 1740
e 1739 1741
e 1739 1742
e 1739 1743
e 1739 1744
e 1739 1745
e 1739 1746
e 1739 1747
e 1739 1748
e 1739 1749
e 1739 1750
e 1739 1751
e 1739 1752
e 1739 1753
e 1739 1754
e 1739 1755
e 1739 1756
e 1739 1757
e 1739 1758
e 1739 1759
e 1739 1760
e 1739 1761
e 1739 1762
e 1739 1763
e 1739 1764
e 1739 1765
e 1739 1766
e 1739 1767
e 1739 1768
e 1739 1769
e 1739 1770
e 1739 1771
e 1739 1772
e 1739 1773
e 1739 1774
e 1739 1775
e 1739 1776
e 1739 1777
e 1739 1778
e 1739 1779
e 1739 1780
e 1739 1781
e 1739 1782
e 1739 1783
e 1739 1784
e 1739 1785
e 1739 1786
e 1739 1787
e 1739 1788
e 1739 1789
e 1739 1790
e 1739 1791
e 1739 1792
e 1739 1793
e 1739 1794
e 1739 1795
e 1739 1796
e 1739 1797
e 1739 1798
e 1739 1799
e 1739 1800
e 1739 1801
e 1739 1802
e 1739 1803
e 1739 1804
e 1739 1805
e 1739 1806
e 1739 1807
e 1739 1808
e 1739 1809
e 1739 1810
e 1739 1811
e 1739 1812
e 1739 1813
e 1739 1814
e 1739 1815
e 1739 1816
e 1739 1817
e 1818 1819
e 1818 1820
e 1818 1821
e 1818 1822
e 1818 1823
e 1818 1824
e 1818 1825
e 1818 1826
e 1818 1827
e 1818 1828
e 1818 1829
e 1818 1830
e 1818 1831
e 1818 1832
e 1818 1833
e 1818 1834
e 1818 1835
e 1818 1836
e 1818 1837
e 1818 1838
e 1818 1839
e 1818 1840
e 1818 1841
e 1818 1842
e 1818 1843
e 1818 1844
e 1818 1845
e 1818 1846
e 1818 1847
e 1818 1848
e 1818 1849
e 1818 1850
e 1818 1851
e 1818 1852
e 1818 1853
e 1818 1854
e 1818 1855
e 1818 1856
e 1818 1857
e 1818 1858
e 1818 1859
e 1818 1860
e 1818 1861
e 1818 1862
e 1818 1863
e 1818 1864
e 1818 1865
e 1818 1866
e 1818 1867
e 1818 1868
e 1818 1869
e 1818 1870
e 1818 1871
e 1818 1872
e 1818 1873
e 1818 1874
e 1818 1875
e 1818 1876
e 1818 1877
e 1818 1878
e 1818 1879
e 1818 1880
e 1818 1881
e 1818 1882
e 1818 1883
e 1818 1884
e 1818 1885
e 1818 1886
e 1818 1887
e 1818 1888
e 1818 1889
e 1890 1891
e 1890 1892
e 1890 1893
e 1890 1894
e 1890 1895
e 1890 1896
e 1890 1897
e 1890 1898
e 1890 1899
e 1890 1900
e 1890 1901
e 1890 1902
e 1890 1903
e 1890 1904
e 1890 1905
e 1890 1906
e 1890 1907
e 1890 1908
e 1890 1909
e 1890 1910
e 1890 1911
e 1890 1912
e 1890 1913
e 1890 1914
e 1890 1915
e 1890 1916
e 1890 1917
e 1890 1918
e 1890 1919
e 1890 1920
e 1890 1921
e 1890 1922
e 1890 1923
e 1890 1924
e 1890 1925
e 1890 1926
e 1890 1927
e 1890 1928
e 1890 1929
e 1890 1930
e 1890 1931
e 1890 1932
e 1890 1933
e 1890 1934
e 1890 1935
e 1890 1936
e 1890 1937
e 1890 1938
e 1890 1939
e 1890 1940
e 1890 1941
e 1890 1942
e 1890 1943
e 1890 1944
e 1890 1945
e 1890 1946
e 1890 1947
e 1890 1948
e 1890 1949
e 1890 1950
e 1890 1951
e 1890 1952
e 1890 1953
e 1890 1954
e 1955 1956
e 1955 1957
e 1955 1958
e 1955 1959
e 1955 1960
e 1955 1961
e 1955 1962
e 1955 1963
e 1955 1964
e 1955 1965
e 1955 1966
e 1955 1967
e 1955 1968
e 1955 1969
e 1955 1970
e 1955 1971
e 1955 1972
e 1955 1973
e 1955 1974
e 1975 1976
e 1975 1977
e 1975 1978
e 1975 1979
e 1975 1980
e 1975 1981
e 1975 1982
e 1975 1983
e 1975 1984
e 1975 1985
e 1975 1986
e 1975 1987
e 1975 1988
e 1975 1989
e 1975 1990
e 1975 1991
e 1975 1992
e 1975 1993
e 1975 1994
e 1975 1995
e 1975 1996
e 1975 1997
e 1975 1998
e 1975 1999
e 1975 2000
e 1975 2001
e 1975 2002
e 1975 2003
e 1975 2004
e 1975 2005
e 1975 2006
e 1975 2007
e 1975 2008
e 1975 2009
e 1975 2010
e 2011 2012
e 2011 2013
e 2011 2014
e 2011 2015
e 2011 2016
e 2011 2017
e 2011 2018
e 2011 2019
e 2011 2020
e 2011 2021
e 2011 2022
e 2011 2023
e 2011 2024
e 2011 2025
e 2011 2026
e 2011 2027
e 2011 2028
e 2011 2029
e 2011 2030
e 2011 2031
e 2032 2033
e 2032 2034
e 2032 2035
e 2032 2036
e 2032 2037
e 2032 2038
e 2032 2039
e 2032 2040
e 2032 2041
e 2032 2042
e 2032 2043
e 2032 2044
e 2032 2045
e 2032 2046
e 2032 2047
e 2032 2048
e 2049 2050
e 2049 2051
e 2049 2052
e 2049 2053
e 2049 2054
e 2049 2055
e 2049 2056
e 2049 2057
e 2049 2058
e 2049 2059
e 2049 2060
e 2049 2061
e 2049 2062
e 2049 2063
e 2049 2064
e 2049 2065
e 2049 2066
e 2049 2067
e 2049 2068
e 2049 2069
e 2049 2070
e 2049 2071
e 2049 2072
e 2049 2073
e 2049 2074
e 2049 2075
e 2049 2076
e 2049 2077
e 2049 2078
e 2049 2079
e 2049 2080
e 2049 2081
e 2049 2082
e 2049 2083
e 2049 2084
e 2049 2085
e 2049 2086
e 2049 2087
e 2049 2088
e 2049 2089
e 2049 2090
e 2049 2091
e 2049 2092
e 2049 2093
e 2049 2094
e 2049 2095
e 2049 2096
e 2049 2097
e 2049 2098
e 2049 2099
e 2049 2100
e 2049 2101
e 2049 2102
e 2049 2103
e 2049 2104
e 2049 2105
e 2049 2106
e 2049 2107
e 2049 2108
e 2049 2109
e 2049 2110
e 2049 2111
e 2049 2112
e 2049 2113
e 2049 2114
e 2049 2115
e 2049 2116
e 2117 2118
e 2117 2119
e 2117 2120
e 2117 2121
e 2117 2122
e 2117 2123
e 2117 2124
e 2117 2125
e 2117 2126
e 2117 2127
e 2117 2128
e 2117 2129
e 2117 2130
e 2117 2131
e 2117 2132
e 2117 2133
e 2117 2134
e 2117 2135
e 2117 2136
e 2117 2137
e 2117 2138
e 2117 2139
e 2117 2140
e 2117 2141
e 2117 2142
e 2117 2143
e 2117 2144
e 2117 2145
e 2117 2146
e 2117 2147
e 2117 2148
e 2117 2149
e 2117 2150
e 2117 2151
e 2117 2152
e 2117 2153
e 2117 2154
e 2117 2155
e 2117 2156
e 2117 2157
e 2117 2158
e 2117 2159
e 2117 2160
e 2161 2162
e 2161 2163
e 2161 2164
e 2161 2165
e 2161 2166
e 2161 2167
e 2161 2168
e 2161 2169
e 2161 2170
e 2161 2171
e 2161 2172
e 2161 2173
e 2161 2174
e 2161 2175
e 2161 2176
e 2161 2177
e 2161 2178
e 2161 2179
e 2161 2180
e 2161 2181
e 2161 2182
e 2161 2183
e 2161 2184
e 2161 2185
e 2161 2186
e 2161 2187
e 2161 2188
e 2161 2189
e 2161 2190
e 2161 2191
e 2161 2192
e 2161 2193
e 2161 2194
e 2161 2195
e 2161 2196
e 2161 2197
e 2161 2198
e 2161 2199
e 2161 2200
e 2161 2201
e 2161 2202
e 2161 2203
e 2161 2204
e 2161 2205
e 2161 2206
e 2161 2207
e 2161 2208
e 2161 2209
e 2161 2210
e 2161 2211
e 2161 2212
e 2161 2213
e 2161 2214
e 2161 2215
e 2161 2216
e 2161 2217
e 2161 2218
e 2161 2219
e 2161 2220
e 2161 2221
e 2161 2222
e 2161 2223
e 2161 2224
e 2161 2225
e 2161 2226
e 2161 2227
e 2161 2228
e 2161 2229
e 2161 2230
e 2161 2231
e 2161 2232
e 2161 2233
e 2234 2235
e 2234 2236
e 2234 2237
e 2234 2238
e 2234 2239
e 2234 2240
e 2234 2241
e 2234 2242
e 2234 2243
e 2234 2244
e 2234 2245
e 2234 2246
e 2234 2247
e 2234 2248
e 2234 2249
e 2234 2250
e 2234 2251
e 2234 2252
e 2234 2253
e 2234 2254
e 2234 2255
e 2234 2256
e 2234 2257
e 2234 2258
e 2234 2259
e 2234 2260
e 2234 2261
e 2234 2262
e 2234 2263
e 2234 2264
e 2234 2265
e 2234 2266
e 2234 2267
e 2234 2268
e 2234 2269
e 2234 2270
e 2234 2271
e 2234 2272
e 2234 2273
e 2234 2274
e 2234 2275
e 2234 2276
e 2234 2277
e 2234 2278
e 2234 2279
e 2234 2280
e 2234 2281
e 2234 2282
e 2234 2283
e 2234 2284
e 2234 2285
e 2234 2286
e 2234 2287
e 2234 2288
e 2234 2289
e 2234 2290
e 2234 2291
e 2234 2292
e 2234 2293
e 2234 2294
e 2234 2295
e 2234 2296
e 2234 2297
e 2234 2298
e 2234 2299
e 2234 2300
e 2234 2301
e 2234 2302
e 2234 2303
e 2234 2304
e 2234 2305
e 2234 2306
e 2307 2308
e 2307 2309
e 2307 2310
e 2307 2311
e 2307 2312
e 2307 2313
e 2307 2314
e 2307 2315
e 2307 2316
e 2307 2317
e 2307 2318
e 2307 2319
e 2307 2320
e 2307 2321
e 2307 2322
e 2307 2323
e 2307 2324
e 2307 2325
e 2307 2326
e 2307 2327
e 2307 2328
e 2307 2329
e 2307 2330
e 2307 2331
e 2307 2332
e 2307 2333
e 2307 2334
e 2307 2335
e 2307 2336
e 2307 2337
e 2307 2338
e 2307 2339
e 2307 2340
e 2307 2341
e 2307 2342
e 2307 2343
e 2307 2344
e 2307 2345
e 2307 2346
e 2307 2347
e 2307 2348
e 2307 2349
e 2307 2350
e 2307 2351
e 2307 2352
e 2307 2353
e 2307 2354
e 2307 2355
e 2307 2356
e 2307 2357
e 2307 2358
e 2307 2359
e 2307 2360
e 2307 2361
e 2307 2362
e 2307 2363
e 2307 2364
e 2307 2365
e 2307 2366
e 2307 2367
e 2307 2368
e 2307 2369
e 2307 2370
e 2307 2371
e 2307 2372
e 2307 2373
e 2307 2374
e 2375 2376
e 2375 2377
e 2375 2378
e 2375 2379
e 2375 2380
e 2375 2381
e 2375 2382
e 2375 2383
e 2375 2384
e 2375 2385
e 2375 2386
e 2375 2387
e 2375 2388
e 2375 2389
e 2375 2390
e 2375 2391
e 2375 2392
e 2375 2393
e 2394 2395
e 2394 2396
e 2394 2397
e 2394 2398
e 2394 2399
e 2394 2400
e 2394 2401
e 2394 2402
e 2394 2403
e 2394 2404
e 2394 2405
e 2394 2406
e 2394 2407
e 2394 2408
e 2394 2409
e 2394 2410
e 2394 2411
e 2394 2412
e 2394 2413
e 2394 2414
e 2394 2415
e 2394 2416
e 2394 2417
e 2394 2418
e 2394 2419
e 2394 2420
e 2394 2421
e 2422 2423
e 2422 2424
e 2422 2425
e 2422 2426
e 2422 2427
e 2422 2428
e 2422 2429
e 2422 2430
e 2422 2431
e 2422 2432
e 2422 2433
e 2422 2434
e 2422 2435
e 2422 2436
e 2422 2437
e 2422 2438
e 2422 2439
e 2422 2440
e 2422 2441
e 2422 2442
e 2422 2443
e 2422 2444
e 2422 2445
e 2422 2446
e 2422 2447
e 2422 2448
e 2422 2449
e 2422 2450
e 2422 2451
e 2422 2452
e 2422 2453
e 2422 2454
e 2422 2455
e 2422 2456
e 2422 2457
e 2422 2458
e 2422 2459
e 2422 2460
e 2422 2461
e 2422 2462
e 2422 2463
e 2422 2464
e 2422 2465
e 2422 2466
e 2422 2467
e 2422 2468
e 2422 2469
e 2422 2470
e 2422 2471
e 2422 2472
e 2422 2473
e 2422 2474
e 2422 2475
e 2422 2476
e 2422 2477
e 2422 2478
e 2422 2479
e 2422 2480
e 2422 2481
e 2422 2482
e 2422 2483
e 2422 2484
e 2422 2485
e 2422 2486
e 2422 2487
e 2422 2488
e 2422 2489
e 2422 2490
e 2422 2491
e 2422 2492
e 2422 2493
e 2494 2495
e 2494 2496
e 2494 2497
e 2494 2498
e 2494 2499
e 2494 2500
e 2494 2501
e 2494 2502
e 2494 2503
e 2494 2504
e 2494 2505
e 2494 2506
e 2494 2507
e 2494 2508
e 2494 2509
e 2494 2510
e 2494 2511
e 2494 2512
e 2494 2513
e 2514 2515
e 2514 2516
e 2514 2517
e 2514 2518
e 2514 2519
e 2514 2520
e 2514 2521
e 2514 2522
e 2514 2523
e 2514 2524
e 2514 2525
e 2514 2526
e 2514 2527
e 2514 2528
e 2514 2529
e 2514 2530
e 2514 2531
e 2514 2532
e 2514 2533
e 2514 2534
e 2514 2535
e 2514 2536
e 2514 2537
e 2514 2538
e 2514 2539
e 2514 2540
e 2514 2541
e 2514 2542
e 2514 2543
e 2514 2544
e 2514 2545
e 2514 2546
e 2514 2547
e 2514 2548
e 2514 2549
e 2514 2550
e 2514 2551
e 2514 2552
e 2514 2553
e 2514 2554
e 2514 2555
e 2514 2556
e 2514 2557
e 2514 2558
e 2514 2559
e 2514 2560
e 2514 2561
e 2514 2562
e 2514 2563
e 2514 2564
e 2514 2565
e 2514 2566
e 2514 2567
e 2514 2568
e 2514 2569
e 2514 2570
e 2514 2571
e 2514 2572
e 2514 2573
e 2514 2574
e 2514 2575
e 2514 2576
e 2514 2577
e 2514 2578
e 2514 2579
e 2514 2580
e 2514 2581
e 2514 2582
e 2514 2583
e 2514 2584
e 2514 2585
e 2514 2586
e 2514 2587
e 2514 2588
e 2514 2589
e 2514 2590
e 2514 2591
e 2514 2592
e 2593 2594
e 2593 2595
e 2593 2596
e 2593 2597
e 2593 2598
e 2593 2599
e 2593 2600
e 2593 2601
e 2593 2602
e 2593 2603
e 2593 2604
e 2593 2605
e 2593 2606
e 2593 2607
e 2593 2608
e 2593 2609
e 2593 2610
e 2593 2611
e 2593 2612
e 2593 2613
e 2593 2614
e 2593 2615
e 2593 2616
e 2593 2617
e 2593 2618
e 2593 2619
e 2593 2620
e 2593 2621
e 2593 2622
e 2593 2623
e 2593 2624
e 2593 2625
e 2593 2626
e 2593 2627
e 2593 2628
e 2593 2629
e 2593 2630
e 2593 2631
e 2593 2632
e 2593 2633
e 2593 2634
e 2593 2635
e 2593 2636
e 2593 2637
e 2593 2638
e 2593 2639
e 2593 2640
e 2593 2641
e 2593 2642
e 2593 2643
e 2593 2644
e 2593 2645
e 2593 2646
e 2593 2647
e 2593 2648
e 2593 2649
e 2593 2650
e 2593 2651
e 2593 2652
e 2593 2653
e 2593 2654
e 2593 2655
e 2593 2656
e 2593 2657
e 2593 2658
e 2593 2659
e 2593 2660
e 2593 2661
e 2593 2662
e 2593 2663
e 2593 2664
e 2593 2665
e 2593 2666
e 2593 2667
e 2593 2668
e 2593 2669
e 2593 2670
e 2593 2671
e 2593 2672
e 2593 2673
e 2674 2675
e 2674 2676
e 2674 2677
e 2674 2678
e 2674 2679
e 2674 2680
e 2674 2681
e 2674 2682
e 2674 2683
e 2674 2684
e 2674 2685
e 2674 2686
e 2674 2687
e 2674 2688
e 2674 2689
e 2674 2690
e 2674 2691
e 2674 2692
e 2674 2693
e 2674 2694
e 2674 2695
e 2674 2696
e 2674 2697
e 2674 2698
e 2674 2699
e 2674 2700
e 2674 2701
e 2674 2702
e 2674 2703
e 2674 2704
e 2674 2705
e 2674 2706
e 2674 2707
e 2674 2708
e 2674 2709
e 2674 2710
e 2674 2711
e 2674 2712
e 2674 2713
e 2674 2714
e 2674 2715
e 2674 2716
e 2674 2717
e 2674 2718
e 2674 2719
e 2674 2720
e 2674 2721
e 2674 2722
e 2674 2723
e 2674 2724
e 2674 2725
e 2674 2726
e 2674 2727
e 2674 2728
e 2674 2729
e 2674 2730
e 2674 2731
e 2674 2732
e 2674 2733
e 2674 2734
e 2674 2735
e 2674 2736
e 2674 2737
e 2674 2738
e 2674 2739
e 2674 2740
e 2674 2741
e 2674 2742
e 2674 2743
e 2744 2745
e 2744 2746
e 2744 2747
e 2744 2748
e 2744 2749
e 2744 2750
e 2744 2751
e 2744 2752
e 2744 2753
e 2744 2754
e 2744 2755
e 2744 2756
e 2744 2757
e 2744 2758
e 2744 2759
e 2744 2760
e 2744 2761
e 2744 2762
e 2744 2763
e 2744 2764
e 2744 2765
e 2744 2766
e 2744 2767
e 2744 2768
e 2744 2769
e 2744 2770
e 2744 2771
e 2744 2772
e 2744 2773
e 2744 2774
e 2744 2775
e 2744 2776
e 2744 2777
e 2744 2778
e 2744 2779
e 2744 2780
e 2744 2781
e 2744 2782
e 2744 2783
e 2744 2784
e 2744 2785
e 2744 2786
e 2744 2787
e 2744 2788
e 2744 2789
e 2744 2790
e 2744 2791
e 2744 2792
e 2744 2793
e 2744 2794
e 2744 2795
e 2744 2796
e 2744 2797
e 2744 2798
e 2744 2799
e 2744 2800
e 2744 2801
e 2744 2802
e 2744 2803
e 2744 2804
e 2744 2805
e 2744 2806
e 2744 2807
e 2744 2808
e 2744 2809
e 2744 2810
e 2744 2811
e 2744 2812
e 2744 2813
e 2744 2814
e 2744 2815
e 2744 2816
e 2744 2817
e 2744 2818
e 2744 2819
e 2744 2820
